; Options: -in -smt2
(set-option :produce-unsat-assumptions true)

(declare-fun start!2645 () Bool)

(assert start!2645)

(declare-fun lt!7757 () (_ FloatingPoint 11 53))

(declare-datatypes ((Unit!1568 0))(
  ( (Unit!1569) )
))
(declare-datatypes ((array!1157 0))(
  ( (array!1158 (arr!511 (Array (_ BitVec 32) (_ BitVec 32))) (size!511 (_ BitVec 32))) )
))
(declare-datatypes ((tuple4!400 0))(
  ( (tuple4!401 (_1!394 Unit!1568) (_2!394 array!1157) (_3!331 (_ BitVec 32)) (_4!200 (_ FloatingPoint 11 53))) )
))
(declare-fun e!8261 () tuple4!400)

(declare-fun b!14226 () Bool)

(declare-fun jz!20 () (_ BitVec 32))

(declare-datatypes ((array!1159 0))(
  ( (array!1160 (arr!512 (Array (_ BitVec 32) (_ FloatingPoint 11 53))) (size!512 (_ BitVec 32))) )
))
(declare-fun q!31 () array!1159)

(declare-fun lt!7761 () array!1157)

(declare-fun computeModuloWhile!0 ((_ BitVec 32) array!1159 array!1157 (_ BitVec 32) (_ FloatingPoint 11 53)) tuple4!400)

(assert (=> b!14226 (= e!8261 (computeModuloWhile!0 jz!20 q!31 lt!7761 jz!20 lt!7757))))

(declare-fun b!14227 () Bool)

(declare-fun e!8255 () Bool)

(declare-fun e!8254 () Bool)

(assert (=> b!14227 (= e!8255 e!8254)))

(declare-fun res!10925 () Bool)

(assert (=> b!14227 (=> res!10925 e!8254)))

(declare-datatypes ((tuple4!402 0))(
  ( (tuple4!403 (_1!395 Unit!1568) (_2!395 (_ BitVec 32)) (_3!332 array!1157) (_4!201 (_ BitVec 32))) )
))
(declare-fun lt!7763 () tuple4!402)

(assert (=> b!14227 (= res!10925 (or (bvsgt #b00000000000000000000000000000000 (_2!395 lt!7763)) (bvsgt (_2!395 lt!7763) (bvsub jz!20 #b00000000000000000000000000000001))))))

(declare-fun lt!7762 () (_ BitVec 32))

(declare-fun carry!33 () (_ BitVec 32))

(declare-fun i!142 () (_ BitVec 32))

(declare-fun lt!7759 () (_ BitVec 32))

(declare-fun iq!76 () array!1157)

(declare-fun computeModuloWhile!3 ((_ BitVec 32) array!1159 (_ BitVec 32) array!1157 (_ BitVec 32)) tuple4!402)

(assert (=> b!14227 (= lt!7763 (computeModuloWhile!3 jz!20 q!31 lt!7762 (array!1158 (store (arr!511 iq!76) i!142 (ite (= carry!33 #b00000000000000000000000000000000) (ite (not (= lt!7759 #b00000000000000000000000000000000)) (bvsub #b00000001000000000000000000000000 lt!7759) #b00000000000000000000000000000000) (bvsub #b00000000111111111111111111111111 lt!7759))) (size!511 iq!76)) (ite (and (= carry!33 #b00000000000000000000000000000000) (not (= lt!7759 #b00000000000000000000000000000000))) #b00000000000000000000000000000001 carry!33)))))

(declare-fun b!14228 () Bool)

(declare-fun e!8257 () Bool)

(declare-fun e!8259 () Bool)

(assert (=> b!14228 (= e!8257 e!8259)))

(declare-fun res!10928 () Bool)

(assert (=> b!14228 (=> (not res!10928) (not e!8259))))

(declare-fun lt!7758 () (_ FloatingPoint 11 53))

(declare-fun lt!7760 () tuple4!400)

(assert (=> b!14228 (= res!10928 (and (fp.leq (fp #b0 #b00000000000 #b0000000000000000000000000000000000000000000000000000) lt!7758) (fp.lt lt!7758 (fp #b0 #b10000000010 #b0000000000000000000000000000000000000000000000000000)) (bvsge (select (arr!511 (_2!394 lt!7760)) (bvsub jz!20 #b00000000000000000000000000000001)) #b00000000100000000000000000000000) (bvsle #b00000000000000000000000000000000 i!142) (bvsle i!142 (bvsub jz!20 #b00000000000000000000000000000001))))))

(assert (=> b!14228 (= lt!7758 (fp.sub roundNearestTiesToEven (_4!200 lt!7760) (fp.mul roundNearestTiesToEven (fp #b0 #b10000000010 #b0000000000000000000000000000000000000000000000000000) ((_ to_fp 11 53) roundNearestTiesToEven (ite (fp.isNaN (fp.mul roundNearestTiesToEven (_4!200 lt!7760) (fp #b0 #b01111111100 #b0000000000000000000000000000000000000000000000000000))) #b0000000000000000000000000000000000000000000000000000000000000000 (ite (fp.gt (fp.mul roundNearestTiesToEven (_4!200 lt!7760) (fp #b0 #b01111111100 #b0000000000000000000000000000000000000000000000000000)) ((_ to_fp 11 53) roundTowardZero #b0111111111111111111111111111111111111111111111111111111111111111)) #b0111111111111111111111111111111111111111111111111111111111111111 (ite (fp.lt (fp.mul roundNearestTiesToEven (_4!200 lt!7760) (fp #b0 #b01111111100 #b0000000000000000000000000000000000000000000000000000)) ((_ to_fp 11 53) roundTowardZero #b1000000000000000000000000000000000000000000000000000000000000000)) #b1000000000000000000000000000000000000000000000000000000000000000 ((_ fp.to_sbv 64) roundTowardZero (fp.mul roundNearestTiesToEven (_4!200 lt!7760) (fp #b0 #b01111111100 #b0000000000000000000000000000000000000000000000000000))))))))))))

(assert (=> b!14228 (= lt!7760 e!8261)))

(declare-fun c!1863 () Bool)

(assert (=> b!14228 (= c!1863 (bvsgt jz!20 #b00000000000000000000000000000000))))

(assert (=> b!14228 (= lt!7757 (select (arr!512 q!31) jz!20))))

(assert (=> b!14228 (= lt!7761 (array!1158 ((as const (Array (_ BitVec 32) (_ BitVec 32))) #b00000000000000000000000000000000) #b00000000000000000000000000010100))))

(declare-fun b!14229 () Bool)

(declare-fun res!10924 () Bool)

(assert (=> b!14229 (=> (not res!10924) (not e!8259))))

(declare-fun iqInv!0 (array!1157) Bool)

(assert (=> b!14229 (= res!10924 (iqInv!0 iq!76))))

(declare-fun b!14230 () Bool)

(declare-fun Unit!1570 () Unit!1568)

(assert (=> b!14230 (= e!8261 (tuple4!401 Unit!1570 lt!7761 jz!20 lt!7757))))

(declare-fun b!14231 () Bool)

(declare-fun res!10929 () Bool)

(assert (=> b!14231 (=> res!10929 e!8254)))

(assert (=> b!14231 (= res!10929 (not (iqInv!0 (_3!332 lt!7763))))))

(declare-fun b!14232 () Bool)

(declare-fun res!10930 () Bool)

(assert (=> b!14232 (=> (not res!10930) (not e!8257))))

(declare-fun qInv!0 (array!1159) Bool)

(assert (=> b!14232 (= res!10930 (qInv!0 q!31))))

(declare-fun b!14234 () Bool)

(assert (=> b!14234 (= e!8254 (or (bvslt (select (arr!511 (_3!332 lt!7763)) (bvsub jz!20 #b00000000000000000000000000000001)) #b00000000100000000000000000000000) (and (not (= (_4!201 lt!7763) #b00000000000000000000000000000000)) (not (= (_4!201 lt!7763) #b00000000000000000000000000000001)))))))

(declare-fun b!14235 () Bool)

(declare-fun e!8258 () Bool)

(assert (=> b!14235 (= e!8259 e!8258)))

(declare-fun res!10926 () Bool)

(assert (=> b!14235 (=> (not res!10926) (not e!8258))))

(declare-fun QInt!0 ((_ BitVec 32)) Bool)

(assert (=> b!14235 (= res!10926 (QInt!0 lt!7759))))

(assert (=> b!14235 (= lt!7759 (select (arr!511 iq!76) i!142))))

(declare-fun b!14236 () Bool)

(declare-fun res!10923 () Bool)

(assert (=> b!14236 (=> (not res!10923) (not e!8259))))

(assert (=> b!14236 (= res!10923 (and (bvsge (select (arr!511 iq!76) (bvsub jz!20 #b00000000000000000000000000000001)) #b00000000100000000000000000000000) (or (= carry!33 #b00000000000000000000000000000000) (= carry!33 #b00000000000000000000000000000001)) (bvslt i!142 (bvsub jz!20 #b00000000000000000000000000000001))))))

(declare-fun res!10922 () Bool)

(assert (=> start!2645 (=> (not res!10922) (not e!8257))))

(assert (=> start!2645 (= res!10922 (and (bvsle #b00000000000000000000000000000010 jz!20) (bvslt jz!20 #b00000000000000000000000000010011)))))

(assert (=> start!2645 e!8257))

(assert (=> start!2645 true))

(declare-fun array_inv!459 (array!1159) Bool)

(assert (=> start!2645 (array_inv!459 q!31)))

(declare-fun array_inv!460 (array!1157) Bool)

(assert (=> start!2645 (array_inv!460 iq!76)))

(declare-fun b!14233 () Bool)

(assert (=> b!14233 (= e!8258 e!8255)))

(declare-fun res!10927 () Bool)

(assert (=> b!14233 (=> (not res!10927) (not e!8255))))

(assert (=> b!14233 (= res!10927 (bvslt lt!7762 (bvsub jz!20 #b00000000000000000000000000000001)))))

(assert (=> b!14233 (= lt!7762 (bvadd i!142 #b00000000000000000000000000000001))))

(assert (= (and start!2645 res!10922) b!14232))

(assert (= (and b!14232 res!10930) b!14228))

(assert (= (and b!14228 c!1863) b!14226))

(assert (= (and b!14228 (not c!1863)) b!14230))

(assert (= (and b!14228 res!10928) b!14229))

(assert (= (and b!14229 res!10924) b!14236))

(assert (= (and b!14236 res!10923) b!14235))

(assert (= (and b!14235 res!10926) b!14233))

(assert (= (and b!14233 res!10927) b!14227))

(assert (= (and b!14227 (not res!10925)) b!14231))

(assert (= (and b!14231 (not res!10929)) b!14234))

(declare-fun m!19817 () Bool)

(assert (=> b!14232 m!19817))

(declare-fun m!19819 () Bool)

(assert (=> b!14226 m!19819))

(declare-fun m!19821 () Bool)

(assert (=> b!14229 m!19821))

(declare-fun m!19823 () Bool)

(assert (=> b!14228 m!19823))

(declare-fun m!19825 () Bool)

(assert (=> b!14228 m!19825))

(declare-fun m!19827 () Bool)

(assert (=> b!14236 m!19827))

(declare-fun m!19829 () Bool)

(assert (=> b!14227 m!19829))

(declare-fun m!19831 () Bool)

(assert (=> b!14227 m!19831))

(declare-fun m!19833 () Bool)

(assert (=> start!2645 m!19833))

(declare-fun m!19835 () Bool)

(assert (=> start!2645 m!19835))

(declare-fun m!19837 () Bool)

(assert (=> b!14234 m!19837))

(declare-fun m!19839 () Bool)

(assert (=> b!14235 m!19839))

(declare-fun m!19841 () Bool)

(assert (=> b!14235 m!19841))

(declare-fun m!19843 () Bool)

(assert (=> b!14231 m!19843))

(check-sat (not b!14227) (not b!14235) (not b!14229) (not start!2645) (not b!14231) (not b!14232) (not b!14226))
(check-sat)
(get-model)

(declare-fun b!14249 () Bool)

(declare-fun e!8268 () Bool)

(declare-fun lt!7778 () tuple4!400)

(assert (=> b!14249 (= e!8268 (bvsle (_3!331 lt!7778) #b00000000000000000000000000000000))))

(declare-fun b!14250 () Bool)

(declare-fun res!10940 () Bool)

(declare-fun e!8269 () Bool)

(assert (=> b!14250 (=> (not res!10940) (not e!8269))))

(assert (=> b!14250 (= res!10940 (iqInv!0 lt!7761))))

(declare-fun b!14251 () Bool)

(assert (=> b!14251 (= e!8269 (bvsgt jz!20 #b00000000000000000000000000000000))))

(declare-fun lt!7777 () (_ FloatingPoint 11 53))

(declare-fun e!8270 () tuple4!400)

(declare-fun b!14252 () Bool)

(declare-fun lt!7774 () array!1157)

(declare-fun lt!7775 () (_ BitVec 32))

(assert (=> b!14252 (= e!8270 (computeModuloWhile!0 jz!20 q!31 lt!7774 lt!7775 lt!7777))))

(declare-fun b!14253 () Bool)

(declare-fun Unit!1571 () Unit!1568)

(assert (=> b!14253 (= e!8270 (tuple4!401 Unit!1571 lt!7774 lt!7775 lt!7777))))

(declare-fun d!4861 () Bool)

(assert (=> d!4861 e!8268))

(declare-fun res!10941 () Bool)

(assert (=> d!4861 (=> (not res!10941) (not e!8268))))

(assert (=> d!4861 (= res!10941 (and true true (bvsle #b00000000000000000000000000000000 (_3!331 lt!7778)) (bvsle (_3!331 lt!7778) jz!20) (fp.leq (fp #b0 #b00000000000 #b0000000000000000000000000000000000000000000000000000) (_4!200 lt!7778)) (fp.leq (_4!200 lt!7778) (fp #b0 #b10000110001 #b0100000000000000000000010011111111111111111111111100))))))

(assert (=> d!4861 (= lt!7778 e!8270)))

(declare-fun c!1866 () Bool)

(assert (=> d!4861 (= c!1866 (bvsgt lt!7775 #b00000000000000000000000000000000))))

(assert (=> d!4861 (= lt!7775 (bvsub jz!20 #b00000000000000000000000000000001))))

(declare-fun lt!7776 () (_ FloatingPoint 11 53))

(assert (=> d!4861 (= lt!7777 (fp.add roundNearestTiesToEven (select (arr!512 q!31) (bvsub jz!20 #b00000000000000000000000000000001)) lt!7776))))

(assert (=> d!4861 (= lt!7774 (array!1158 (store (arr!511 lt!7761) (bvsub jz!20 jz!20) (ite (fp.isNaN (fp.sub roundNearestTiesToEven lt!7757 (fp.mul roundNearestTiesToEven (fp #b0 #b10000010111 #b0000000000000000000000000000000000000000000000000000) lt!7776))) #b00000000000000000000000000000000 (ite (fp.gt (fp.sub roundNearestTiesToEven lt!7757 (fp.mul roundNearestTiesToEven (fp #b0 #b10000010111 #b0000000000000000000000000000000000000000000000000000) lt!7776)) ((_ to_fp 11 53) roundTowardZero #b01111111111111111111111111111111)) #b01111111111111111111111111111111 (ite (fp.lt (fp.sub roundNearestTiesToEven lt!7757 (fp.mul roundNearestTiesToEven (fp #b0 #b10000010111 #b0000000000000000000000000000000000000000000000000000) lt!7776)) ((_ to_fp 11 53) roundTowardZero #b10000000000000000000000000000000)) #b10000000000000000000000000000000 ((_ fp.to_sbv 32) roundTowardZero (fp.sub roundNearestTiesToEven lt!7757 (fp.mul roundNearestTiesToEven (fp #b0 #b10000010111 #b0000000000000000000000000000000000000000000000000000) lt!7776))))))) (size!511 lt!7761)))))

(assert (=> d!4861 (= lt!7776 ((_ to_fp 11 53) roundNearestTiesToEven (ite (fp.isNaN (fp.mul roundNearestTiesToEven (fp #b0 #b01111100111 #b0000000000000000000000000000000000000000000000000000) lt!7757)) #b00000000000000000000000000000000 (ite (fp.gt (fp.mul roundNearestTiesToEven (fp #b0 #b01111100111 #b0000000000000000000000000000000000000000000000000000) lt!7757) ((_ to_fp 11 53) roundTowardZero #b01111111111111111111111111111111)) #b01111111111111111111111111111111 (ite (fp.lt (fp.mul roundNearestTiesToEven (fp #b0 #b01111100111 #b0000000000000000000000000000000000000000000000000000) lt!7757) ((_ to_fp 11 53) roundTowardZero #b10000000000000000000000000000000)) #b10000000000000000000000000000000 ((_ fp.to_sbv 32) roundTowardZero (fp.mul roundNearestTiesToEven (fp #b0 #b01111100111 #b0000000000000000000000000000000000000000000000000000) lt!7757)))))))))

(assert (=> d!4861 e!8269))

(declare-fun res!10942 () Bool)

(assert (=> d!4861 (=> (not res!10942) (not e!8269))))

(assert (=> d!4861 (= res!10942 (and (bvsle #b00000000000000000000000000000000 jz!20) (bvsle jz!20 jz!20) (fp.leq (fp #b0 #b00000000000 #b0000000000000000000000000000000000000000000000000000) lt!7757) (fp.leq lt!7757 (fp #b0 #b10000110001 #b0100000000000000000000010011111111111111111111111100))))))

(assert (=> d!4861 (= (computeModuloWhile!0 jz!20 q!31 lt!7761 jz!20 lt!7757) lt!7778)))

(declare-fun b!14254 () Bool)

(declare-fun res!10939 () Bool)

(assert (=> b!14254 (=> (not res!10939) (not e!8268))))

(assert (=> b!14254 (= res!10939 (iqInv!0 (_2!394 lt!7778)))))

(assert (= (and d!4861 res!10942) b!14250))

(assert (= (and b!14250 res!10940) b!14251))

(assert (= (and d!4861 c!1866) b!14252))

(assert (= (and d!4861 (not c!1866)) b!14253))

(assert (= (and d!4861 res!10941) b!14254))

(assert (= (and b!14254 res!10939) b!14249))

(declare-fun m!19845 () Bool)

(assert (=> b!14250 m!19845))

(declare-fun m!19847 () Bool)

(assert (=> b!14252 m!19847))

(declare-fun m!19849 () Bool)

(assert (=> d!4861 m!19849))

(declare-fun m!19851 () Bool)

(assert (=> d!4861 m!19851))

(declare-fun m!19853 () Bool)

(assert (=> b!14254 m!19853))

(assert (=> b!14226 d!4861))

(declare-fun b!14275 () Bool)

(declare-fun lt!7798 () (_ BitVec 32))

(declare-fun e!8281 () tuple4!402)

(declare-fun lt!7801 () array!1157)

(declare-fun lt!7804 () (_ BitVec 32))

(assert (=> b!14275 (= e!8281 (computeModuloWhile!3 jz!20 q!31 lt!7798 lt!7801 lt!7804))))

(declare-fun d!4863 () Bool)

(declare-fun e!8279 () Bool)

(assert (=> d!4863 e!8279))

(declare-fun res!10960 () Bool)

(assert (=> d!4863 (=> (not res!10960) (not e!8279))))

(declare-fun lt!7803 () tuple4!402)

(assert (=> d!4863 (= res!10960 (and (or (bvsgt #b00000000000000000000000000000000 (_2!395 lt!7803)) (= (bvand jz!20 #b10000000000000000000000000000000) #b00000000000000000000000000000000) (= (bvand jz!20 #b10000000000000000000000000000000) (bvand (bvsub jz!20 #b00000000000000000000000000000001) #b10000000000000000000000000000000))) (bvsle #b00000000000000000000000000000000 (_2!395 lt!7803)) (bvsle (_2!395 lt!7803) (bvsub jz!20 #b00000000000000000000000000000001))))))

(assert (=> d!4863 (= lt!7803 e!8281)))

(declare-fun c!1872 () Bool)

(assert (=> d!4863 (= c!1872 (bvslt lt!7798 (bvsub jz!20 #b00000000000000000000000000000001)))))

(assert (=> d!4863 (= lt!7798 (bvadd lt!7762 #b00000000000000000000000000000001))))

(declare-fun lt!7799 () (_ BitVec 32))

(assert (=> d!4863 (= lt!7804 (ite (and (= (ite (and (= carry!33 #b00000000000000000000000000000000) (not (= lt!7759 #b00000000000000000000000000000000))) #b00000000000000000000000000000001 carry!33) #b00000000000000000000000000000000) (not (= lt!7799 #b00000000000000000000000000000000))) #b00000000000000000000000000000001 (ite (and (= carry!33 #b00000000000000000000000000000000) (not (= lt!7759 #b00000000000000000000000000000000))) #b00000000000000000000000000000001 carry!33)))))

(assert (=> d!4863 (= lt!7801 (array!1158 (store (arr!511 (array!1158 (store (arr!511 iq!76) i!142 (ite (= carry!33 #b00000000000000000000000000000000) (ite (not (= lt!7759 #b00000000000000000000000000000000)) (bvsub #b00000001000000000000000000000000 lt!7759) #b00000000000000000000000000000000) (bvsub #b00000000111111111111111111111111 lt!7759))) (size!511 iq!76))) lt!7762 (ite (= (ite (and (= carry!33 #b00000000000000000000000000000000) (not (= lt!7759 #b00000000000000000000000000000000))) #b00000000000000000000000000000001 carry!33) #b00000000000000000000000000000000) (ite (not (= lt!7799 #b00000000000000000000000000000000)) (bvsub #b00000001000000000000000000000000 lt!7799) #b00000000000000000000000000000000) (bvsub #b00000000111111111111111111111111 lt!7799))) (size!511 (array!1158 (store (arr!511 iq!76) i!142 (ite (= carry!33 #b00000000000000000000000000000000) (ite (not (= lt!7759 #b00000000000000000000000000000000)) (bvsub #b00000001000000000000000000000000 lt!7759) #b00000000000000000000000000000000) (bvsub #b00000000111111111111111111111111 lt!7759))) (size!511 iq!76)))))))

(assert (=> d!4863 (= lt!7799 (select (arr!511 (array!1158 (store (arr!511 iq!76) i!142 (ite (= carry!33 #b00000000000000000000000000000000) (ite (not (= lt!7759 #b00000000000000000000000000000000)) (bvsub #b00000001000000000000000000000000 lt!7759) #b00000000000000000000000000000000) (bvsub #b00000000111111111111111111111111 lt!7759))) (size!511 iq!76))) lt!7762))))

(declare-fun e!8280 () Bool)

(assert (=> d!4863 e!8280))

(declare-fun res!10957 () Bool)

(assert (=> d!4863 (=> (not res!10957) (not e!8280))))

(assert (=> d!4863 (= res!10957 (and (bvsle #b00000000000000000000000000000000 lt!7762) (bvsle lt!7762 (bvsub jz!20 #b00000000000000000000000000000001))))))

(declare-fun lt!7800 () tuple4!400)

(declare-fun e!8282 () tuple4!400)

(assert (=> d!4863 (= lt!7800 e!8282)))

(declare-fun c!1871 () Bool)

(assert (=> d!4863 (= c!1871 (bvsgt jz!20 #b00000000000000000000000000000000))))

(declare-fun lt!7805 () (_ FloatingPoint 11 53))

(assert (=> d!4863 (= lt!7805 (select (arr!512 q!31) jz!20))))

(declare-fun lt!7802 () array!1157)

(assert (=> d!4863 (= lt!7802 (array!1158 ((as const (Array (_ BitVec 32) (_ BitVec 32))) #b00000000000000000000000000000000) #b00000000000000000000000000010100))))

(assert (=> d!4863 (= (computeModuloWhile!3 jz!20 q!31 lt!7762 (array!1158 (store (arr!511 iq!76) i!142 (ite (= carry!33 #b00000000000000000000000000000000) (ite (not (= lt!7759 #b00000000000000000000000000000000)) (bvsub #b00000001000000000000000000000000 lt!7759) #b00000000000000000000000000000000) (bvsub #b00000000111111111111111111111111 lt!7759))) (size!511 iq!76)) (ite (and (= carry!33 #b00000000000000000000000000000000) (not (= lt!7759 #b00000000000000000000000000000000))) #b00000000000000000000000000000001 carry!33)) lt!7803)))

(declare-fun b!14276 () Bool)

(assert (=> b!14276 (= e!8282 (computeModuloWhile!0 jz!20 q!31 lt!7802 jz!20 lt!7805))))

(declare-fun b!14277 () Bool)

(assert (=> b!14277 (= e!8279 (bvsge (_2!395 lt!7803) (bvsub jz!20 #b00000000000000000000000000000001)))))

(assert (=> b!14277 (or (= (bvand jz!20 #b10000000000000000000000000000000) #b00000000000000000000000000000000) (= (bvand jz!20 #b10000000000000000000000000000000) (bvand (bvsub jz!20 #b00000000000000000000000000000001) #b10000000000000000000000000000000)))))

(declare-fun b!14278 () Bool)

(declare-fun res!10956 () Bool)

(assert (=> b!14278 (=> (not res!10956) (not e!8279))))

(assert (=> b!14278 (= res!10956 (or (= (_4!201 lt!7803) #b00000000000000000000000000000000) (= (_4!201 lt!7803) #b00000000000000000000000000000001)))))

(declare-fun b!14279 () Bool)

(declare-fun Unit!1572 () Unit!1568)

(assert (=> b!14279 (= e!8281 (tuple4!403 Unit!1572 lt!7798 lt!7801 lt!7804))))

(declare-fun b!14280 () Bool)

(declare-fun res!10959 () Bool)

(assert (=> b!14280 (=> (not res!10959) (not e!8279))))

(assert (=> b!14280 (= res!10959 (iqInv!0 (_3!332 lt!7803)))))

(declare-fun b!14281 () Bool)

(declare-fun res!10958 () Bool)

(assert (=> b!14281 (=> (not res!10958) (not e!8280))))

(assert (=> b!14281 (= res!10958 (iqInv!0 (array!1158 (store (arr!511 iq!76) i!142 (ite (= carry!33 #b00000000000000000000000000000000) (ite (not (= lt!7759 #b00000000000000000000000000000000)) (bvsub #b00000001000000000000000000000000 lt!7759) #b00000000000000000000000000000000) (bvsub #b00000000111111111111111111111111 lt!7759))) (size!511 iq!76))))))

(declare-fun b!14282 () Bool)

(declare-fun res!10955 () Bool)

(assert (=> b!14282 (=> (not res!10955) (not e!8279))))

(declare-fun lt!7797 () (_ BitVec 32))

(assert (=> b!14282 (= res!10955 (bvsge (select (arr!511 (_3!332 lt!7803)) lt!7797) #b00000000100000000000000000000000))))

(assert (=> b!14282 (and (bvsge lt!7797 #b00000000000000000000000000000000) (bvslt lt!7797 (size!511 (_3!332 lt!7803))))))

(assert (=> b!14282 (= lt!7797 (bvsub jz!20 #b00000000000000000000000000000001))))

(assert (=> b!14282 (or (= (bvand jz!20 #b10000000000000000000000000000000) #b00000000000000000000000000000000) (= (bvand jz!20 #b10000000000000000000000000000000) (bvand (bvsub jz!20 #b00000000000000000000000000000001) #b10000000000000000000000000000000)))))

(declare-fun b!14283 () Bool)

(declare-fun Unit!1573 () Unit!1568)

(assert (=> b!14283 (= e!8282 (tuple4!401 Unit!1573 lt!7802 jz!20 lt!7805))))

(declare-fun b!14284 () Bool)

(assert (=> b!14284 (= e!8280 (and (bvsge (select (arr!511 (array!1158 (store (arr!511 iq!76) i!142 (ite (= carry!33 #b00000000000000000000000000000000) (ite (not (= lt!7759 #b00000000000000000000000000000000)) (bvsub #b00000001000000000000000000000000 lt!7759) #b00000000000000000000000000000000) (bvsub #b00000000111111111111111111111111 lt!7759))) (size!511 iq!76))) (bvsub jz!20 #b00000000000000000000000000000001)) #b00000000100000000000000000000000) (or (= (ite (and (= carry!33 #b00000000000000000000000000000000) (not (= lt!7759 #b00000000000000000000000000000000))) #b00000000000000000000000000000001 carry!33) #b00000000000000000000000000000000) (= (ite (and (= carry!33 #b00000000000000000000000000000000) (not (= lt!7759 #b00000000000000000000000000000000))) #b00000000000000000000000000000001 carry!33) #b00000000000000000000000000000001)) (bvslt lt!7762 (bvsub jz!20 #b00000000000000000000000000000001))))))

(assert (= (and d!4863 c!1871) b!14276))

(assert (= (and d!4863 (not c!1871)) b!14283))

(assert (= (and d!4863 res!10957) b!14281))

(assert (= (and b!14281 res!10958) b!14284))

(assert (= (and d!4863 c!1872) b!14275))

(assert (= (and d!4863 (not c!1872)) b!14279))

(assert (= (and d!4863 res!10960) b!14280))

(assert (= (and b!14280 res!10959) b!14282))

(assert (= (and b!14282 res!10955) b!14278))

(assert (= (and b!14278 res!10956) b!14277))

(declare-fun m!19855 () Bool)

(assert (=> b!14281 m!19855))

(declare-fun m!19857 () Bool)

(assert (=> b!14276 m!19857))

(declare-fun m!19859 () Bool)

(assert (=> b!14284 m!19859))

(declare-fun m!19861 () Bool)

(assert (=> b!14275 m!19861))

(declare-fun m!19863 () Bool)

(assert (=> d!4863 m!19863))

(declare-fun m!19865 () Bool)

(assert (=> d!4863 m!19865))

(assert (=> d!4863 m!19825))

(declare-fun m!19867 () Bool)

(assert (=> b!14280 m!19867))

(declare-fun m!19869 () Bool)

(assert (=> b!14282 m!19869))

(assert (=> b!14227 d!4863))

(declare-fun d!4865 () Bool)

(declare-fun res!10963 () Bool)

(declare-fun e!8285 () Bool)

(assert (=> d!4865 (=> (not res!10963) (not e!8285))))

(assert (=> d!4865 (= res!10963 (= (size!512 q!31) #b00000000000000000000000000010100))))

(assert (=> d!4865 (= (qInv!0 q!31) e!8285)))

(declare-fun b!14287 () Bool)

(declare-fun lambda!611 () Int)

(declare-fun all20!0 (array!1159 Int) Bool)

(assert (=> b!14287 (= e!8285 (all20!0 q!31 lambda!611))))

(assert (= (and d!4865 res!10963) b!14287))

(declare-fun m!19871 () Bool)

(assert (=> b!14287 m!19871))

(assert (=> b!14232 d!4865))

(declare-fun d!4867 () Bool)

(declare-fun res!10966 () Bool)

(declare-fun e!8288 () Bool)

(assert (=> d!4867 (=> (not res!10966) (not e!8288))))

(assert (=> d!4867 (= res!10966 (= (size!511 (_3!332 lt!7763)) #b00000000000000000000000000010100))))

(assert (=> d!4867 (= (iqInv!0 (_3!332 lt!7763)) e!8288)))

(declare-fun b!14290 () Bool)

(declare-fun lambda!614 () Int)

(declare-fun all20Int!0 (array!1157 Int) Bool)

(assert (=> b!14290 (= e!8288 (all20Int!0 (_3!332 lt!7763) lambda!614))))

(assert (= (and d!4867 res!10966) b!14290))

(declare-fun m!19873 () Bool)

(assert (=> b!14290 m!19873))

(assert (=> b!14231 d!4867))

(declare-fun bs!2078 () Bool)

(declare-fun b!14291 () Bool)

(assert (= bs!2078 (and b!14291 b!14290)))

(declare-fun lambda!615 () Int)

(assert (=> bs!2078 (= lambda!615 lambda!614)))

(declare-fun d!4869 () Bool)

(declare-fun res!10967 () Bool)

(declare-fun e!8289 () Bool)

(assert (=> d!4869 (=> (not res!10967) (not e!8289))))

(assert (=> d!4869 (= res!10967 (= (size!511 iq!76) #b00000000000000000000000000010100))))

(assert (=> d!4869 (= (iqInv!0 iq!76) e!8289)))

(assert (=> b!14291 (= e!8289 (all20Int!0 iq!76 lambda!615))))

(assert (= (and d!4869 res!10967) b!14291))

(declare-fun m!19875 () Bool)

(assert (=> b!14291 m!19875))

(assert (=> b!14229 d!4869))

(declare-fun d!4871 () Bool)

(assert (=> d!4871 (= (QInt!0 lt!7759) (and (bvsle #b00000000000000000000000000000000 lt!7759) (bvsle lt!7759 #b00000000111111111111111111111111)))))

(assert (=> b!14235 d!4871))

(declare-fun d!4873 () Bool)

(assert (=> d!4873 (= (array_inv!459 q!31) (bvsge (size!512 q!31) #b00000000000000000000000000000000))))

(assert (=> start!2645 d!4873))

(declare-fun d!4875 () Bool)

(assert (=> d!4875 (= (array_inv!460 iq!76) (bvsge (size!511 iq!76) #b00000000000000000000000000000000))))

(assert (=> start!2645 d!4875))

(check-sat (not b!14275) (not b!14287) (not b!14254) (not b!14280) (not b!14250) (not b!14290) (not b!14252) (not b!14276) (not b!14291) (not b!14281))
(check-sat)
